; benchmark generated from python API
(set-info :status unknown)
(declare-fun args_1_8 () (_ BitVec 8))
(declare-fun args_2_8 () (_ BitVec 8))
(declare-fun args_3_8 () (_ BitVec 8))
(declare-fun args_4_8 () (_ BitVec 8))
(declare-fun args_5_16 () (_ BitVec 16))
(declare-fun args_6_16 () (_ BitVec 16))
(declare-fun args_7_16 () (_ BitVec 16))
(declare-fun args_8_16 () (_ BitVec 16))
(declare-fun args_9_16 () (_ BitVec 16))
(declare-fun args_10_32 () (_ BitVec 32))
(declare-fun args_11_32 () (_ BitVec 32))
(declare-fun args_12_32 () (_ BitVec 32))
(declare-fun args_13_32 () (_ BitVec 32))
(declare-fun args_14_32 () (_ BitVec 32))
(declare-fun args_15_64 () (_ BitVec 64))
(declare-fun strlen_563_64 () (_ BitVec 64))
(declare-fun |filesize_file_161_??? _564_64| () (_ BitVec 64))
(assert
 (let ((?x58 ((_ extract 7 7) args_1_8)))
 (let (($x162537 (= (_ bv0 1) ?x58)))
 (let (($x18078 (not $x162537)))
 (let (($x156107 (= (_ bv64 8) args_1_8)))
 (let (($x174489 (not $x156107)))
 (or $x174489 $x18078)))))))
(assert
 (let ((?x146 ((_ extract 7 7) args_2_8)))
 (let (($x121403 (= (_ bv0 1) ?x146)))
 (let (($x71154 (not $x121403)))
 (let (($x242820 (= (_ bv64 8) args_2_8)))
 (let (($x142536 (not $x242820)))
 (or $x142536 $x71154)))))))
(assert
 (let ((?x189 ((_ extract 7 7) args_3_8)))
 (let (($x192873 (= (_ bv0 1) ?x189)))
 (let (($x164638 (not $x192873)))
 (let (($x179869 (= (_ bv64 8) args_3_8)))
 (let (($x114780 (not $x179869)))
 (or $x114780 $x164638)))))))
(assert
 (let ((?x227 ((_ extract 7 7) args_4_8)))
 (let (($x214733 (= (_ bv0 1) ?x227)))
 (let (($x175325 (not $x214733)))
 (let (($x230954 (= (_ bv64 8) args_4_8)))
 (let (($x188947 (not $x230954)))
 (or $x188947 $x175325)))))))
(assert
 (let ((?x244 ((_ extract 15 15) args_5_16)))
 (let (($x219634 (= (_ bv0 1) ?x244)))
 (let (($x140078 (not $x219634)))
 (let ((?x267 ((_ extract 15 8) args_5_16)))
 (let (($x322 (= (_ bv64 8) ?x267)))
 (let (($x198005 (not $x322)))
 (or $x198005 $x140078))))))))
(assert
 (let ((?x444 ((_ extract 15 15) args_6_16)))
 (let (($x87527 (= (_ bv0 1) ?x444)))
 (let (($x18629 (not $x87527)))
 (let ((?x341 ((_ extract 15 8) args_6_16)))
 (let (($x599 (= (_ bv64 8) ?x341)))
 (let (($x21273 (not $x599)))
 (or $x21273 $x18629))))))))
(assert
 (let ((?x826 ((_ extract 15 15) args_7_16)))
 (let (($x156912 (= (_ bv0 1) ?x826)))
 (let (($x159659 (not $x156912)))
 (let ((?x603 ((_ extract 15 8) args_7_16)))
 (let (($x1708 (= (_ bv64 8) ?x603)))
 (let (($x226572 (not $x1708)))
 (or $x226572 $x159659))))))))
(assert
 (let ((?x1836 ((_ extract 15 15) args_8_16)))
 (let (($x229122 (= (_ bv0 1) ?x1836)))
 (let (($x158633 (not $x229122)))
 (let ((?x1929 ((_ extract 15 8) args_8_16)))
 (let (($x4072 (= (_ bv64 8) ?x1929)))
 (let (($x195992 (not $x4072)))
 (or $x195992 $x158633))))))))
(assert
 (let ((?x4290 ((_ extract 15 15) args_9_16)))
 (let (($x85318 (= (_ bv0 1) ?x4290)))
 (let (($x239013 (not $x85318)))
 (let ((?x4071 ((_ extract 15 8) args_9_16)))
 (let (($x7222 (= (_ bv64 8) ?x4071)))
 (let (($x255110 (not $x7222)))
 (or $x255110 $x239013))))))))
(assert
 (let ((?x7446 ((_ extract 31 31) args_10_32)))
 (let (($x238541 (= (_ bv0 1) ?x7446)))
 (let (($x241574 (not $x238541)))
 (let ((?x7223 ((_ extract 31 24) args_10_32)))
 (let (($x7526 (= (_ bv64 8) ?x7223)))
 (let (($x236716 (not $x7526)))
 (or $x236716 $x241574))))))))
(assert
 (let ((?x10896 ((_ extract 31 31) args_11_32)))
 (let (($x242391 (= (_ bv0 1) ?x10896)))
 (let (($x127011 (not $x242391)))
 (let ((?x11007 ((_ extract 31 24) args_11_32)))
 (let (($x15482 (= (_ bv64 8) ?x11007)))
 (let (($x246419 (not $x15482)))
 (or $x246419 $x127011))))))))
(assert
 (let ((?x15369 ((_ extract 31 31) args_12_32)))
 (let (($x249245 (= (_ bv0 1) ?x15369)))
 (let (($x165485 (not $x249245)))
 (let ((?x15543 ((_ extract 31 24) args_12_32)))
 (let (($x20378 (= (_ bv64 8) ?x15543)))
 (let (($x113689 (not $x20378)))
 (or $x113689 $x165485))))))))
(assert
 (let ((?x20354 ((_ extract 31 31) args_13_32)))
 (let (($x145183 (= (_ bv0 1) ?x20354)))
 (let (($x173661 (not $x145183)))
 (let ((?x20248 ((_ extract 31 24) args_13_32)))
 (let (($x27172 (= (_ bv64 8) ?x20248)))
 (let (($x189401 (not $x27172)))
 (or $x189401 $x173661))))))))
(assert
 (let ((?x27058 ((_ extract 31 31) args_14_32)))
 (let (($x131174 (= (_ bv0 1) ?x27058)))
 (let (($x222996 (not $x131174)))
 (let ((?x27286 ((_ extract 31 24) args_14_32)))
 (let (($x50310 (= (_ bv64 8) ?x27286)))
 (let (($x181851 (not $x50310)))
 (or $x181851 $x222996))))))))
(assert
 (let ((?x47161 ((_ extract 63 56) args_15_64)))
 (= (_ bv64 8) ?x47161)))
(assert
 (let ((?x64839 ((_ extract 7 0) args_15_64)))
 (let (($x73078 (= (_ bv0 8) ?x64839)))
 (let ((?x74263 (ite $x73078 (_ bv576460752303357881 64) (_ bv576460752303357882 64))))
 (let ((?x77084 ((_ extract 15 8) args_15_64)))
 (let (($x74427 (= (_ bv0 8) ?x77084)))
 (let ((?x74192 (ite $x74427 (_ bv576460752303357880 64) ?x74263)))
 (let ((?x66434 ((_ extract 23 16) args_15_64)))
 (let (($x72062 (= (_ bv0 8) ?x66434)))
 (let ((?x74672 (ite $x72062 (_ bv576460752303357879 64) ?x74192)))
 (let ((?x69984 ((_ extract 31 24) args_15_64)))
 (let (($x78816 (= (_ bv0 8) ?x69984)))
 (let ((?x76848 (ite $x78816 (_ bv576460752303357878 64) ?x74672)))
 (let ((?x70184 ((_ extract 39 32) args_15_64)))
 (let (($x74466 (= (_ bv0 8) ?x70184)))
 (let ((?x76594 (ite $x74466 (_ bv576460752303357877 64) ?x76848)))
 (let ((?x69352 ((_ extract 47 40) args_15_64)))
 (let (($x72738 (= (_ bv0 8) ?x69352)))
 (let ((?x70367 (ite $x72738 (_ bv576460752303357876 64) ?x76594)))
 (let ((?x74174 ((_ extract 55 48) args_15_64)))
 (let (($x74857 (= (_ bv0 8) ?x74174)))
 (let ((?x74458 (ite $x74857 (_ bv576460752303357875 64) ?x70367)))
 (let ((?x68035 (bvsub ?x74458 (_ bv576460752303357875 64))))
 (= ?x68035 strlen_563_64))))))))))))))))))))))))
(assert
 (bvsle (_ bv0 64) |filesize_file_161_??? _564_64|))
(minimize args_13_32)
(minimize args_11_32)
(maximize args_2_8)
(minimize args_6_16)
(minimize args_8_16)
(maximize args_13_32)
(minimize args_9_16)
(minimize args_1_8)
(minimize |filesize_file_161_??? _564_64|)
(minimize args_10_32)
(maximize strlen_563_64)
(maximize args_1_8)
(maximize args_11_32)
(minimize strlen_563_64)
(maximize args_9_16)
(maximize args_14_32)
(maximize args_12_32)
(maximize args_6_16)
(maximize args_15_64)
(maximize args_7_16)
(maximize args_8_16)
(minimize args_14_32)
(minimize args_3_8)
(maximize |filesize_file_161_??? _564_64|)
(minimize args_15_64)
(check-sat)
(get-objectives)
